decision_x1=[0,7];
decision_x2=[0,7];
decision_x3=[0,7];
decision_x4=[0,7];
decision_x5=[0,7];
decision_x6=[0,7];
decision_x7=[0,7];
decision_x8=[0,7];
decision_x9=[0,7];
decision_x10=[0,7];
decision_x11=[0,7];
decision_x12=[0,7];
decision_x13=[0,7];
decision_x14=[0,7];
decision_x15=[0,7];
decision_x16=[0,7];
decision_x17=[0,7];
decision_x18=[0,7];
random_y1=[0,7];
random_y2=[0,7];
random_y3=[0,7];
random_y4=[0,7];
random_y5=[0,7];
random_y6=[0,7];
random_y7=[0,7];
random_y8=[0,7];
constraint_x2_x1=[
0,0,3.2|
0,1,5.5|
0,2,1.2|
0,3,0.03|
0,4,4.7|
0,5,7.4|
0,6,7.9|
0,7,1.3|
1,0,0.62|
1,1,7.2|
1,2,1.4|
1,3,6.4|
1,4,5.4|
1,5,3.5|
1,6,4.1|
1,7,9.1|
2,0,2|
2,1,2.4|
2,2,0.4|
2,3,2.5|
2,4,3.4|
2,5,5.2|
2,6,0.053|
2,7,9.1|
3,0,6.4|
3,1,8.9|
3,2,5.9|
3,3,7.6|
3,4,6.3|
3,5,2.3|
3,6,6.1|
3,7,2.6|
4,0,3.7|
4,1,4.6|
4,2,1.4|
4,3,8.8|
4,4,9.3|
4,5,6.7|
4,6,8.3|
4,7,4.7|
5,0,9.7|
5,1,1.7|
5,2,1|
5,3,0.21|
5,4,7.6|
5,5,6|
5,6,2.9|
5,7,5.9|
6,0,7.5|
6,1,5.4|
6,2,6.3|
6,3,4|
6,4,2.3|
6,5,0.024|
6,6,4.8|
6,7,9.1|
7,0,5.4|
7,1,5.7|
7,2,6.2|
7,3,6.3|
7,4,7.8|
7,5,0.67|
7,6,4|
7,7,1.8|
];
constraint_x3_x2=[
0,0,1.2|
0,1,2.8|
0,2,3.3|
0,3,7.8|
0,4,9.5|
0,5,8.2|
0,6,7.2|
0,7,7.6|
1,0,8.4|
1,1,3|
1,2,2.6|
1,3,5.6|
1,4,7|
1,5,9.4|
1,6,3.2|
1,7,1.2|
2,0,7|
2,1,9|
2,2,5.4|
2,3,7.1|
2,4,1|
2,5,7.6|
2,6,0.019|
2,7,0.0055|
3,0,5|
3,1,4|
3,2,10|
3,3,0.8|
3,4,5.6|
3,5,8.4|
3,6,6.6|
3,7,2.1|
4,0,0.92|
4,1,4.2|
4,2,7.5|
4,3,0.057|
4,4,2.1|
4,5,9.5|
4,6,9.8|
4,7,3.5|
5,0,8.5|
5,1,2.8|
5,2,9.1|
5,3,3.6|
5,4,7.7|
5,5,0.79|
5,6,1.1|
5,7,8.3|
6,0,5.8|
6,1,2.4|
6,2,5|
6,3,7.1|
6,4,9.7|
6,5,7.7|
6,6,2.1|
6,7,1.6|
7,0,1|
7,1,5|
7,2,2.9|
7,3,1.4|
7,4,5.3|
7,5,6.6|
7,6,4.1|
7,7,2.5|
];
constraint_x4_x3=[
0,0,1.6|
0,1,8.4|
0,2,4|
0,3,2.9|
0,4,8.8|
0,5,0.9|
0,6,5.4|
0,7,2.7|
1,0,8.9|
1,1,9|
1,2,5.4|
1,3,5.4|
1,4,2.5|
1,5,9.7|
1,6,0.27|
1,7,4|
2,0,6.2|
2,1,6|
2,2,5.2|
2,3,5.9|
2,4,1.6|
2,5,2.2|
2,6,8.3|
2,7,3.3|
3,0,1.6|
3,1,8.9|
3,2,5.3|
3,3,0.9|
3,4,9.3|
3,5,5|
3,6,5.9|
3,7,9|
4,0,0.73|
4,1,2.7|
4,2,0.017|
4,3,2.1|
4,4,0.11|
4,5,0.58|
4,6,0.32|
4,7,0.74|
5,0,9.6|
5,1,4.4|
5,2,5.3|
5,3,1.4|
5,4,0.5|
5,5,4.5|
5,6,7.3|
5,7,7.8|
6,0,6.6|
6,1,8.9|
6,2,6|
6,3,6.1|
6,4,7.1|
6,5,8.9|
6,6,6.9|
6,7,6.4|
7,0,4.8|
7,1,3.8|
7,2,4.8|
7,3,4.1|
7,4,9.1|
7,5,1.9|
7,6,5.3|
7,7,2.4|
];
constraint_x5_x1=[
0,0,1.4|
0,1,7.2|
0,2,2|
0,3,9.1|
0,4,5.2|
0,5,9.3|
0,6,0.47|
0,7,1.1|
1,0,8.3|
1,1,4.8|
1,2,0.23|
1,3,9.2|
1,4,8.5|
1,5,9.5|
1,6,4.3|
1,7,3.3|
2,0,9.1|
2,1,0.65|
2,2,5.6|
2,3,7.4|
2,4,9|
2,5,8.5|
2,6,0.058|
2,7,5.3|
3,0,3.5|
3,1,9.2|
3,2,7.7|
3,3,8.4|
3,4,8.4|
3,5,1.6|
3,6,5|
3,7,9.4|
4,0,8|
4,1,4.4|
4,2,6.5|
4,3,6.6|
4,4,0.78|
4,5,9.8|
4,6,7|
4,7,4.1|
5,0,9.4|
5,1,0.52|
5,2,2.9|
5,3,3|
5,4,2.8|
5,5,8.7|
5,6,6.6|
5,7,4.6|
6,0,3.5|
6,1,3.5|
6,2,2|
6,3,0.0034|
6,4,3.3|
6,5,9.8|
6,6,7.4|
6,7,1|
7,0,0.83|
7,1,5.5|
7,2,0.92|
7,3,3.3|
7,4,3.3|
7,5,0.23|
7,6,9.5|
7,7,1.6|
];
constraint_x6_x2=[
0,0,3.5|
0,1,3.3|
0,2,3.2|
0,3,5.5|
0,4,4.8|
0,5,4.8|
0,6,4.4|
0,7,0.65|
1,0,1.7|
1,1,6.5|
1,2,9.1|
1,3,7.9|
1,4,4.1|
1,5,3.7|
1,6,0.3|
1,7,7.3|
2,0,9.5|
2,1,3.1|
2,2,6.2|
2,3,4.7|
2,4,4.9|
2,5,0.54|
2,6,1.2|
2,7,6.3|
3,0,8|
3,1,2.9|
3,2,4|
3,3,3.3|
3,4,2|
3,5,1.1|
3,6,2.5|
3,7,3.9|
4,0,1.8|
4,1,6.4|
4,2,3.6|
4,3,8.5|
4,4,1.4|
4,5,7.1|
4,6,10|
4,7,4.5|
5,0,2.1|
5,1,8.4|
5,2,0.27|
5,3,5.2|
5,4,3.5|
5,5,6|
5,6,2.3|
5,7,8.6|
6,0,5.2|
6,1,6|
6,2,7.3|
6,3,5.2|
6,4,1.2|
6,5,4|
6,6,2.7|
6,7,5.1|
7,0,2.2|
7,1,7.4|
7,2,2|
7,3,5.5|
7,4,9.2|
7,5,9.2|
7,6,5.8|
7,7,2.8|
];
constraint_x6_x5=[
0,0,9.9|
0,1,4.4|
0,2,2.4|
0,3,4.5|
0,4,7.7|
0,5,2.4|
0,6,9.5|
0,7,1.1|
1,0,0.72|
1,1,0.28|
1,2,7.5|
1,3,7.8|
1,4,8.8|
1,5,9.4|
1,6,9.9|
1,7,6.6|
2,0,2.4|
2,1,3.6|
2,2,9.3|
2,3,3.4|
2,4,3.4|
2,5,0.33|
2,6,4|
2,7,2.9|
3,0,8.6|
3,1,6|
3,2,6.7|
3,3,9.5|
3,4,9|
3,5,3.3|
3,6,1.7|
3,7,2.4|
4,0,2.3|
4,1,9.2|
4,2,4.7|
4,3,8.3|
4,4,2.1|
4,5,2.6|
4,6,6.9|
4,7,2.6|
5,0,3.5|
5,1,2.9|
5,2,0.58|
5,3,1.8|
5,4,3.8|
5,5,1.3|
5,6,0.4|
5,7,7.3|
6,0,2.5|
6,1,3.6|
6,2,1.4|
6,3,6.6|
6,4,9.2|
6,5,9.2|
6,6,4.2|
6,7,3.7|
7,0,6.5|
7,1,9.7|
7,2,4.7|
7,3,4.9|
7,4,5.6|
7,5,7.4|
7,6,7.1|
7,7,2.6|
];
constraint_x7_x3=[
0,0,8.9|
0,1,6.9|
0,2,5.2|
0,3,8.7|
0,4,9.5|
0,5,1.4|
0,6,5.8|
0,7,1.3|
1,0,8.7|
1,1,2.2|
1,2,5.5|
1,3,4.5|
1,4,5.6|
1,5,5.8|
1,6,1.9|
1,7,7.1|
2,0,8.3|
2,1,5.8|
2,2,7.2|
2,3,5.8|
2,4,2.9|
2,5,9.8|
2,6,3.8|
2,7,8.6|
3,0,3.4|
3,1,2.3|
3,2,3.7|
3,3,1.7|
3,4,7.2|
3,5,1.9|
3,6,4.9|
3,7,4.1|
4,0,3.2|
4,1,7.8|
4,2,4.9|
4,3,9.7|
4,4,0.27|
4,5,0.33|
4,6,3.6|
4,7,6.2|
5,0,3.8|
5,1,0.29|
5,2,9.1|
5,3,3.8|
5,4,8.2|
5,5,4.4|
5,6,7.5|
5,7,0.49|
6,0,2.6|
6,1,2.6|
6,2,3.4|
6,3,0.46|
6,4,2.3|
6,5,4.6|
6,6,2.9|
6,7,4.1|
7,0,4|
7,1,0.38|
7,2,4.1|
7,3,4.1|
7,4,7|
7,5,9|
7,6,4.4|
7,7,8.9|
];
constraint_x7_x6=[
0,0,0.7|
0,1,8.1|
0,2,0.28|
0,3,8|
0,4,3.9|
0,5,7.7|
0,6,6.1|
0,7,0.21|
1,0,2.4|
1,1,0.31|
1,2,8.4|
1,3,6.5|
1,4,2.7|
1,5,5.6|
1,6,6.8|
1,7,6.9|
2,0,3.7|
2,1,6.7|
2,2,5.2|
2,3,9.2|
2,4,3.6|
2,5,1.7|
2,6,9.8|
2,7,7.6|
3,0,7.9|
3,1,4.9|
3,2,8.4|
3,3,3.4|
3,4,3.1|
3,5,8.8|
3,6,5.9|
3,7,1.7|
4,0,0.47|
4,1,3.5|
4,2,8|
4,3,8.5|
4,4,1.8|
4,5,9.9|
4,6,2.1|
4,7,9.3|
5,0,5|
5,1,6.6|
5,2,6.4|
5,3,1|
5,4,4.7|
5,5,1.5|
5,6,9|
5,7,0.5|
6,0,4.7|
6,1,1.8|
6,2,9.7|
6,3,9.7|
6,4,2.9|
6,5,8.3|
6,6,0.46|
6,7,2.7|
7,0,6|
7,1,5.6|
7,2,7.2|
7,3,7.9|
7,4,7.2|
7,5,0.094|
7,6,7.7|
7,7,6.6|
];
constraint_x8_x4=[
0,0,7.7|
0,1,8.9|
0,2,1.8|
0,3,5|
0,4,0.3|
0,5,6|
0,6,1.6|
0,7,8.2|
1,0,7|
1,1,0.67|
1,2,5|
1,3,4|
1,4,6.4|
1,5,3.5|
1,6,8.9|
1,7,3.3|
2,0,1.5|
2,1,2.9|
2,2,6.4|
2,3,9.1|
2,4,0.66|
2,5,6.5|
2,6,5.4|
2,7,3|
3,0,8.3|
3,1,4.7|
3,2,3.6|
3,3,9.4|
3,4,3.1|
3,5,5.6|
3,6,2.9|
3,7,0.39|
4,0,0.9|
4,1,3.7|
4,2,2.6|
4,3,7|
4,4,3.4|
4,5,8.2|
4,6,5.9|
4,7,5.7|
5,0,6|
5,1,2.4|
5,2,9.5|
5,3,2.1|
5,4,3|
5,5,6.9|
5,6,0.21|
5,7,6.6|
6,0,8.1|
6,1,5.5|
6,2,4.7|
6,3,1.3|
6,4,9.7|
6,5,8.9|
6,6,9.7|
6,7,9|
7,0,8.7|
7,1,2.2|
7,2,5.4|
7,3,6.3|
7,4,1.6|
7,5,9|
7,6,0.92|
7,7,0.65|
];
constraint_x8_x7=[
0,0,9.2|
0,1,4.1|
0,2,5.4|
0,3,6.8|
0,4,3.1|
0,5,8.6|
0,6,6.5|
0,7,8.9|
1,0,1.5|
1,1,3.5|
1,2,6.8|
1,3,6.4|
1,4,8.9|
1,5,8.8|
1,6,0.89|
1,7,6.7|
2,0,7.6|
2,1,1.1|
2,2,2.3|
2,3,4.5|
2,4,1.9|
2,5,7|
2,6,4.2|
2,7,8.5|
3,0,7.4|
3,1,4|
3,2,9.2|
3,3,3.3|
3,4,6.9|
3,5,3.2|
3,6,4.8|
3,7,3.6|
4,0,2.9|
4,1,7.8|
4,2,2.4|
4,3,7.3|
4,4,1.1|
4,5,0.13|
4,6,2.3|
4,7,9.6|
5,0,6.9|
5,1,2.2|
5,2,3.3|
5,3,9.1|
5,4,0.57|
5,5,2|
5,6,2.2|
5,7,6.1|
6,0,2.7|
6,1,0.32|
6,2,1.4|
6,3,6.1|
6,4,6.1|
6,5,4.8|
6,6,9.8|
6,7,9.1|
7,0,1.4|
7,1,3.7|
7,2,4.3|
7,3,6.4|
7,4,5.6|
7,5,2.1|
7,6,4.8|
7,7,8.9|
];
constraint_x9_x5=[
0,0,7.1|
0,1,4.5|
0,2,1.2|
0,3,2.5|
0,4,7.7|
0,5,3.1|
0,6,8.4|
0,7,2.9|
1,0,7.7|
1,1,9.6|
1,2,5.2|
1,3,9.8|
1,4,7.1|
1,5,4|
1,6,7.8|
1,7,4.8|
2,0,5.9|
2,1,2.1|
2,2,0.15|
2,3,2.1|
2,4,2.6|
2,5,9.9|
2,6,7.9|
2,7,9.5|
3,0,9.3|
3,1,6|
3,2,7.3|
3,3,2.3|
3,4,8.9|
3,5,9.8|
3,6,7.5|
3,7,9.3|
4,0,4|
4,1,4.2|
4,2,3.7|
4,3,8.3|
4,4,4.6|
4,5,0.63|
4,6,5.3|
4,7,6.2|
5,0,3.2|
5,1,6.5|
5,2,5.3|
5,3,7.4|
5,4,2.2|
5,5,1.3|
5,6,8.1|
5,7,8.2|
6,0,4.3|
6,1,6.9|
6,2,5.1|
6,3,6.7|
6,4,4.2|
6,5,7.3|
6,6,5.9|
6,7,7.8|
7,0,8.8|
7,1,4.9|
7,2,9|
7,3,0.78|
7,4,4.6|
7,5,9.2|
7,6,7.2|
7,7,4.4|
];
constraint_x10_x6=[
0,0,5.2|
0,1,5.9|
0,2,1.1|
0,3,4.4|
0,4,4.5|
0,5,1|
0,6,9.3|
0,7,6.1|
1,0,0.038|
1,1,2.1|
1,2,1.6|
1,3,2.5|
1,4,9.1|
1,5,4.2|
1,6,0.69|
1,7,8.4|
2,0,5.6|
2,1,2.2|
2,2,1.1|
2,3,6.8|
2,4,6.7|
2,5,5.7|
2,6,1.6|
2,7,0.039|
3,0,0.8|
3,1,7.7|
3,2,5.7|
3,3,4.4|
3,4,8|
3,5,5.1|
3,6,6.6|
3,7,0.44|
4,0,8.2|
4,1,0.091|
4,2,8.6|
4,3,8.2|
4,4,0.9|
4,5,3.7|
4,6,3.2|
4,7,9.3|
5,0,8.1|
5,1,5.6|
5,2,9.7|
5,3,2.3|
5,4,7.9|
5,5,1.9|
5,6,6.6|
5,7,5.1|
6,0,3.6|
6,1,4.4|
6,2,7.8|
6,3,6.1|
6,4,8.2|
6,5,0.36|
6,6,0.71|
6,7,3.8|
7,0,4.5|
7,1,5.7|
7,2,5.9|
7,3,2|
7,4,5.6|
7,5,10|
7,6,6.6|
7,7,7.7|
];
constraint_x10_x9=[
0,0,4.1|
0,1,7.4|
0,2,5.8|
0,3,8.6|
0,4,8.7|
0,5,8.2|
0,6,9.5|
0,7,0.68|
1,0,1.8|
1,1,4.2|
1,2,0.97|
1,3,7.4|
1,4,4.4|
1,5,8|
1,6,3.6|
1,7,8.1|
2,0,9.9|
2,1,3|
2,2,7.4|
2,3,3.2|
2,4,8.1|
2,5,5.7|
2,6,0.4|
2,7,1.4|
3,0,8.3|
3,1,7.5|
3,2,0.7|
3,3,8.9|
3,4,8.3|
3,5,7.7|
3,6,5.9|
3,7,0.93|
4,0,2.5|
4,1,8|
4,2,6.5|
4,3,5.9|
4,4,6.9|
4,5,4.6|
4,6,6|
4,7,8.5|
5,0,6.4|
5,1,7.9|
5,2,0.32|
5,3,5.2|
5,4,6.4|
5,5,9.1|
5,6,0.6|
5,7,9.4|
6,0,9.2|
6,1,2.6|
6,2,7.9|
6,3,8.1|
6,4,9.4|
6,5,5.6|
6,6,0.63|
6,7,0.99|
7,0,8.9|
7,1,5.7|
7,2,8|
7,3,7.9|
7,4,7.2|
7,5,7.9|
7,6,6.2|
7,7,0.33|
];
constraint_x11_x7=[
0,0,9.9|
0,1,8|
0,2,6.3|
0,3,0.7|
0,4,8.5|
0,5,8.7|
0,6,0.17|
0,7,6.5|
1,0,9|
1,1,2.3|
1,2,0.27|
1,3,8.9|
1,4,4.5|
1,5,0.35|
1,6,1.5|
1,7,6.5|
2,0,8.1|
2,1,3.1|
2,2,6.1|
2,3,8.4|
2,4,9.8|
2,5,4.8|
2,6,5|
2,7,2.3|
3,0,1|
3,1,0.53|
3,2,3.6|
3,3,7.2|
3,4,7.4|
3,5,5.8|
3,6,3|
3,7,3.7|
4,0,4|
4,1,7.7|
4,2,7.6|
4,3,8|
4,4,4.8|
4,5,2.5|
4,6,7|
4,7,3.5|
5,0,9.2|
5,1,1.7|
5,2,3.8|
5,3,1.5|
5,4,5|
5,5,4.9|
5,6,3.8|
5,7,1.5|
6,0,4.7|
6,1,6.5|
6,2,8.7|
6,3,8.7|
6,4,3.9|
6,5,3.9|
6,6,6.2|
6,7,7.9|
7,0,8.1|
7,1,0.87|
7,2,6.7|
7,3,6.8|
7,4,8.6|
7,5,9.1|
7,6,6.2|
7,7,4.2|
];
constraint_x11_x10=[
0,0,0.94|
0,1,6.5|
0,2,0.46|
0,3,5.7|
0,4,5.5|
0,5,3.7|
0,6,5.9|
0,7,3.8|
1,0,7.5|
1,1,9.7|
1,2,2|
1,3,6|
1,4,0.5|
1,5,1.1|
1,6,3.3|
1,7,0.7|
2,0,8|
2,1,5.7|
2,2,0.69|
2,3,9.3|
2,4,8.8|
2,5,0.98|
2,6,0.27|
2,7,6|
3,0,5.5|
3,1,6.4|
3,2,5.9|
3,3,3.8|
3,4,9.2|
3,5,4|
3,6,6.1|
3,7,7.9|
4,0,6.6|
4,1,6.1|
4,2,8.2|
4,3,7.4|
4,4,9.7|
4,5,7.4|
4,6,1.4|
4,7,4.9|
5,0,9.8|
5,1,6|
5,2,4.2|
5,3,1.1|
5,4,5.8|
5,5,1.2|
5,6,3.8|
5,7,1.2|
6,0,3.4|
6,1,3|
6,2,9.2|
6,3,3.9|
6,4,7.7|
6,5,2|
6,6,7.2|
6,7,0.87|
7,0,9.4|
7,1,8.7|
7,2,1.4|
7,3,0.64|
7,4,8.5|
7,5,9.8|
7,6,0.61|
7,7,1.2|
];
constraint_x12_x8=[
0,0,5.1|
0,1,6|
0,2,9.8|
0,3,1.8|
0,4,7.1|
0,5,9.4|
0,6,4.7|
0,7,5.8|
1,0,5|
1,1,2.1|
1,2,7.8|
1,3,9.3|
1,4,8.7|
1,5,7.4|
1,6,1.7|
1,7,8.2|
2,0,9|
2,1,3.6|
2,2,3.9|
2,3,9.4|
2,4,6.5|
2,5,3.4|
2,6,4.7|
2,7,3.2|
3,0,1.3|
3,1,6.8|
3,2,9.2|
3,3,3.1|
3,4,2.8|
3,5,6.5|
3,6,4.8|
3,7,0.69|
4,0,0.23|
4,1,3.2|
4,2,9.1|
4,3,7|
4,4,8.4|
4,5,9.5|
4,6,1.8|
4,7,3.9|
5,0,3.3|
5,1,6.8|
5,2,5.2|
5,3,9.1|
5,4,7.5|
5,5,9.2|
5,6,2.7|
5,7,7.5|
6,0,2.8|
6,1,1.6|
6,2,9.4|
6,3,4.5|
6,4,2.8|
6,5,8.5|
6,6,5|
6,7,0.11|
7,0,9.3|
7,1,9.1|
7,2,8.5|
7,3,6.1|
7,4,7.2|
7,5,2.8|
7,6,4.1|
7,7,8.2|
];
constraint_x12_x11=[
0,0,6.7|
0,1,1.9|
0,2,7|
0,3,7.8|
0,4,9.4|
0,5,4.2|
0,6,0.81|
0,7,7|
1,0,4.6|
1,1,0.19|
1,2,6|
1,3,5.2|
1,4,6.1|
1,5,2.7|
1,6,7.5|
1,7,6.6|
2,0,8.8|
2,1,6.2|
2,2,2.9|
2,3,6.1|
2,4,5.2|
2,5,6|
2,6,8.1|
2,7,2.3|
3,0,1.1|
3,1,8.6|
3,2,3|
3,3,5|
3,4,5.1|
3,5,9.4|
3,6,6.4|
3,7,8.9|
4,0,1.2|
4,1,9|
4,2,7.2|
4,3,8.6|
4,4,3.3|
4,5,5.6|
4,6,0.29|
4,7,9|
5,0,0.79|
5,1,3.3|
5,2,0.8|
5,3,10|
5,4,5.8|
5,5,4.2|
5,6,8.6|
5,7,3.8|
6,0,0.78|
6,1,4.9|
6,2,4|
6,3,0.79|
6,4,6.7|
6,5,9.8|
6,6,3.9|
6,7,9.1|
7,0,7|
7,1,0.91|
7,2,1.6|
7,3,0.46|
7,4,0.71|
7,5,0.17|
7,6,0.39|
7,7,8.3|
];
constraint_x13_x9=[
0,0,3.8|
0,1,7.1|
0,2,1.4|
0,3,5.9|
0,4,8|
0,5,2.4|
0,6,4.6|
0,7,3.5|
1,0,9.2|
1,1,5.3|
1,2,3.5|
1,3,2.9|
1,4,1.3|
1,5,0.069|
1,6,4.4|
1,7,7.8|
2,0,2.8|
2,1,9.4|
2,2,9.7|
2,3,3.9|
2,4,2.6|
2,5,0.34|
2,6,9.3|
2,7,9.7|
3,0,7.7|
3,1,2.9|
3,2,9.7|
3,3,8.1|
3,4,3.6|
3,5,8.1|
3,6,3.7|
3,7,8.2|
4,0,4.8|
4,1,1.4|
4,2,9.7|
4,3,3.7|
4,4,9.1|
4,5,6.7|
4,6,2.9|
4,7,1.3|
5,0,8.6|
5,1,2.2|
5,2,5.1|
5,3,4|
5,4,5.4|
5,5,2.6|
5,6,1.4|
5,7,6.2|
6,0,2.3|
6,1,2.6|
6,2,1|
6,3,6.9|
6,4,1.5|
6,5,5.1|
6,6,4.8|
6,7,7.4|
7,0,3.5|
7,1,2.8|
7,2,9.6|
7,3,9.3|
7,4,6.3|
7,5,5.1|
7,6,2|
7,7,5.6|
];
constraint_x14_x10=[
0,0,3.5|
0,1,6.7|
0,2,8.2|
0,3,6.4|
0,4,3.3|
0,5,8.7|
0,6,9.7|
0,7,7.1|
1,0,7.8|
1,1,9.5|
1,2,2.3|
1,3,3.8|
1,4,3.3|
1,5,3.3|
1,6,3.5|
1,7,0.017|
2,0,4.6|
2,1,2.8|
2,2,9.4|
2,3,3.1|
2,4,5.5|
2,5,7|
2,6,1.3|
2,7,9.6|
3,0,2.8|
3,1,6.2|
3,2,0.37|
3,3,2.9|
3,4,2|
3,5,4.5|
3,6,6.2|
3,7,9.8|
4,0,3.1|
4,1,5.2|
4,2,2.5|
4,3,8.8|
4,4,4.6|
4,5,8.3|
4,6,2.9|
4,7,5.9|
5,0,4.6|
5,1,8.6|
5,2,2.5|
5,3,0.77|
5,4,9|
5,5,2.7|
5,6,2.5|
5,7,0.19|
6,0,2.8|
6,1,0.45|
6,2,8.6|
6,3,0.44|
6,4,6.8|
6,5,9.8|
6,6,9.4|
6,7,2.9|
7,0,1.5|
7,1,2.5|
7,2,5.9|
7,3,8.8|
7,4,0.51|
7,5,8.4|
7,6,7.3|
7,7,6.9|
];
constraint_x14_x13=[
0,0,7.6|
0,1,2|
0,2,9.3|
0,3,0.63|
0,4,1.3|
0,5,3.2|
0,6,0.15|
0,7,3|
1,0,0.048|
1,1,8.2|
1,2,3.2|
1,3,9.2|
1,4,1.4|
1,5,3.1|
1,6,9.6|
1,7,1.6|
2,0,6.9|
2,1,5.6|
2,2,8.9|
2,3,8|
2,4,3.6|
2,5,8.9|
2,6,7.1|
2,7,4.9|
3,0,4.5|
3,1,4.8|
3,2,10|
3,3,1.5|
3,4,6.8|
3,5,6.8|
3,6,8.3|
3,7,0.021|
4,0,7.6|
4,1,9|
4,2,9.4|
4,3,9.3|
4,4,3.4|
4,5,5|
4,6,2.6|
4,7,9.3|
5,0,7.1|
5,1,6|
5,2,2.1|
5,3,6.1|
5,4,1.9|
5,5,9.6|
5,6,3|
5,7,1.9|
6,0,0.11|
6,1,10|
6,2,5.2|
6,3,2.2|
6,4,4.4|
6,5,1.5|
6,6,8.1|
6,7,9.7|
7,0,8.8|
7,1,6.4|
7,2,7.2|
7,3,7.9|
7,4,9.2|
7,5,2.9|
7,6,3.2|
7,7,2.9|
];
constraint_x15_x11=[
0,0,3.6|
0,1,3.9|
0,2,7.8|
0,3,5.4|
0,4,4.9|
0,5,4.7|
0,6,7.4|
0,7,8.5|
1,0,7.8|
1,1,6.6|
1,2,6.2|
1,3,2.1|
1,4,4.9|
1,5,7.4|
1,6,0.45|
1,7,8.6|
2,0,0.29|
2,1,3.9|
2,2,7.5|
2,3,4.6|
2,4,7.6|
2,5,1.2|
2,6,8.3|
2,7,7.5|
3,0,8.1|
3,1,2.1|
3,2,8.5|
3,3,3.7|
3,4,3.3|
3,5,1.5|
3,6,2.3|
3,7,5.3|
4,0,1.5|
4,1,7.7|
4,2,6.5|
4,3,8.2|
4,4,3|
4,5,3.4|
4,6,8.6|
4,7,9.3|
5,0,8.9|
5,1,1.3|
5,2,5.4|
5,3,4.8|
5,4,2.9|
5,5,0.14|
5,6,6|
5,7,4.7|
6,0,8.9|
6,1,3.1|
6,2,0.46|
6,3,0.86|
6,4,9.6|
6,5,9.9|
6,6,4.2|
6,7,1.5|
7,0,3.1|
7,1,4.8|
7,2,1.6|
7,3,2.9|
7,4,5.1|
7,5,0.61|
7,6,5.9|
7,7,1.5|
];
constraint_x15_x14=[
0,0,8.9|
0,1,7.4|
0,2,0.92|
0,3,0.72|
0,4,1.3|
0,5,2.7|
0,6,3.6|
0,7,6|
1,0,5.9|
1,1,7.4|
1,2,2.3|
1,3,5.7|
1,4,6.1|
1,5,7.7|
1,6,7.7|
1,7,6.9|
2,0,0.2|
2,1,4.8|
2,2,2.8|
2,3,0.92|
2,4,4.8|
2,5,5.5|
2,6,5.9|
2,7,0.82|
3,0,7.5|
3,1,8.6|
3,2,8.6|
3,3,4.4|
3,4,7.6|
3,5,3.1|
3,6,9.8|
3,7,3|
4,0,5.1|
4,1,1.4|
4,2,4.4|
4,3,3.1|
4,4,7.8|
4,5,2.6|
4,6,7.4|
4,7,6.1|
5,0,4.2|
5,1,7.1|
5,2,2.2|
5,3,3.2|
5,4,3.8|
5,5,0.37|
5,6,8.2|
5,7,5.6|
6,0,7.2|
6,1,2.9|
6,2,4.5|
6,3,5|
6,4,4.1|
6,5,5.9|
6,6,0.071|
6,7,0.86|
7,0,4.6|
7,1,7.1|
7,2,2.1|
7,3,5|
7,4,5|
7,5,2.1|
7,6,9.6|
7,7,2.3|
];
constraint_x16_x12=[
0,0,4|
0,1,8.8|
0,2,1.4|
0,3,0.49|
0,4,1.4|
0,5,10|
0,6,4|
0,7,1.4|
1,0,9.8|
1,1,4.4|
1,2,9|
1,3,8.8|
1,4,4.9|
1,5,6.9|
1,6,5.2|
1,7,5.1|
2,0,3.3|
2,1,8.1|
2,2,7.2|
2,3,0.21|
2,4,0.25|
2,5,2.3|
2,6,7.9|
2,7,4.8|
3,0,1.5|
3,1,1.4|
3,2,9.4|
3,3,9.3|
3,4,1.1|
3,5,8.6|
3,6,5.8|
3,7,8.7|
4,0,6.1|
4,1,9.6|
4,2,1.5|
4,3,8.1|
4,4,4.4|
4,5,7.2|
4,6,1.1|
4,7,2.4|
5,0,3.5|
5,1,2.7|
5,2,0.18|
5,3,4.6|
5,4,1.7|
5,5,7.6|
5,6,7.3|
5,7,3.8|
6,0,4.6|
6,1,2.3|
6,2,4.4|
6,3,3.1|
6,4,1.7|
6,5,3.7|
6,6,2|
6,7,9.8|
7,0,4.3|
7,1,9.8|
7,2,2.1|
7,3,2.9|
7,4,2.5|
7,5,6.9|
7,6,6|
7,7,9.6|
];
constraint_x16_x15=[
0,0,3.7|
0,1,9.3|
0,2,7|
0,3,5.7|
0,4,2.2|
0,5,1.7|
0,6,0.68|
0,7,5|
1,0,9.9|
1,1,7.2|
1,2,2.8|
1,3,0.053|
1,4,2.8|
1,5,0.24|
1,6,5.5|
1,7,2.5|
2,0,2.7|
2,1,5.1|
2,2,3.1|
2,3,0.36|
2,4,10|
2,5,4.8|
2,6,7.9|
2,7,10|
3,0,9.3|
3,1,3.6|
3,2,8.6|
3,3,2.2|
3,4,0.3|
3,5,3.8|
3,6,7.1|
3,7,0.41|
4,0,9.7|
4,1,0.49|
4,2,2.1|
4,3,3.1|
4,4,3|
4,5,8.5|
4,6,4.5|
4,7,7.6|
5,0,1.7|
5,1,1.5|
5,2,2|
5,3,3|
5,4,5.3|
5,5,2.2|
5,6,8.5|
5,7,0.045|
6,0,7.8|
6,1,8.7|
6,2,8|
6,3,3.1|
6,4,3.7|
6,5,2.3|
6,6,9.6|
6,7,5|
7,0,5.7|
7,1,8|
7,2,0.0073|
7,3,0.75|
7,4,5.4|
7,5,9.4|
7,6,1.5|
7,7,8.5|
];
constraint_x17_x13=[
0,0,9|
0,1,3.4|
0,2,3.6|
0,3,7.3|
0,4,2.1|
0,5,4.7|
0,6,9.4|
0,7,7.4|
1,0,9.7|
1,1,2|
1,2,1.9|
1,3,7.4|
1,4,8|
1,5,8|
1,6,5.5|
1,7,9.5|
2,0,9.2|
2,1,4.8|
2,2,4.4|
2,3,9.4|
2,4,0.14|
2,5,0.88|
2,6,6.8|
2,7,3.4|
3,0,0.72|
3,1,3.8|
3,2,2.8|
3,3,4.1|
3,4,3.8|
3,5,3.5|
3,6,1.5|
3,7,3.1|
4,0,2.6|
4,1,1.8|
4,2,7.2|
4,3,8.7|
4,4,4.9|
4,5,9.5|
4,6,9.4|
4,7,5.2|
5,0,3.1|
5,1,9|
5,2,4.3|
5,3,8.7|
5,4,3.7|
5,5,3|
5,6,6|
5,7,3|
6,0,7.3|
6,1,5.1|
6,2,6.1|
6,3,3.9|
6,4,2.4|
6,5,3.3|
6,6,5.7|
6,7,4.3|
7,0,5.1|
7,1,0.29|
7,2,9.8|
7,3,8.1|
7,4,1.5|
7,5,9.9|
7,6,2.6|
7,7,5.8|
];
constraint_x18_x14=[
0,0,3.4|
0,1,9.2|
0,2,8.7|
0,3,8.6|
0,4,3.2|
0,5,8.7|
0,6,9.2|
0,7,9.6|
1,0,6.2|
1,1,0.45|
1,2,7.3|
1,3,9.4|
1,4,9|
1,5,6.6|
1,6,8.6|
1,7,5.2|
2,0,2|
2,1,8.6|
2,2,8.7|
2,3,7.3|
2,4,3.3|
2,5,3.9|
2,6,6.7|
2,7,2.8|
3,0,4.6|
3,1,7|
3,2,4.5|
3,3,2.9|
3,4,4|
3,5,2.2|
3,6,8.6|
3,7,2|
4,0,5.9|
4,1,6.1|
4,2,6.1|
4,3,7.8|
4,4,8|
4,5,5.2|
4,6,2.6|
4,7,2.6|
5,0,9|
5,1,8.9|
5,2,7.3|
5,3,1.1|
5,4,4.9|
5,5,8.2|
5,6,3.8|
5,7,6.1|
6,0,8.4|
6,1,1.2|
6,2,0.54|
6,3,5.4|
6,4,5.4|
6,5,7|
6,6,8.2|
6,7,6|
7,0,0.12|
7,1,1.5|
7,2,9.8|
7,3,3.3|
7,4,4.7|
7,5,1|
7,6,5.5|
7,7,6.9|
];
constraint_x1_y1=[
0,0,8.4|
0,1,8.3|
0,2,0.17|
0,3,8|
0,4,3.1|
0,5,1|
0,6,5.2|
0,7,1.5|
1,0,9.2|
1,1,2.9|
1,2,6.3|
1,3,4.5|
1,4,4.3|
1,5,2.2|
1,6,5.4|
1,7,1.7|
2,0,6.5|
2,1,6.5|
2,2,1.9|
2,3,10|
2,4,9.5|
2,5,8.5|
2,6,4.6|
2,7,9.3|
3,0,5.5|
3,1,7.3|
3,2,2.9|
3,3,7.2|
3,4,0.75|
3,5,2.4|
3,6,4.2|
3,7,8.6|
4,0,7.5|
4,1,1.1|
4,2,0.23|
4,3,1.8|
4,4,0.16|
4,5,7.6|
4,6,1.2|
4,7,0.15|
5,0,1.5|
5,1,4.9|
5,2,5.5|
5,3,6.6|
5,4,7.1|
5,5,3.6|
5,6,3.9|
5,7,2.4|
6,0,7.6|
6,1,7.7|
6,2,7.7|
6,3,0.89|
6,4,3.7|
6,5,5.8|
6,6,5.9|
6,7,6.1|
7,0,2.3|
7,1,4.2|
7,2,3.7|
7,3,7.6|
7,4,5.3|
7,5,5.2|
7,6,2.7|
7,7,1.6|
];
constraint_x2_y2=[
0,0,4.8|
0,1,7.8|
0,2,2|
0,3,7.1|
0,4,3|
0,5,0.0017|
0,6,7.4|
0,7,0.73|
1,0,4.3|
1,1,3.2|
1,2,1.2|
1,3,8.6|
1,4,1.1|
1,5,8.6|
1,6,0.53|
1,7,2.4|
2,0,1.5|
2,1,6.4|
2,2,1.7|
2,3,4.8|
2,4,6.6|
2,5,4.2|
2,6,4.1|
2,7,4.6|
3,0,9.4|
3,1,3.7|
3,2,2.1|
3,3,7.9|
3,4,4.4|
3,5,6.3|
3,6,4|
3,7,9.3|
4,0,6|
4,1,8.5|
4,2,9.3|
4,3,7.1|
4,4,7.6|
4,5,6.9|
4,6,6.7|
4,7,9.4|
5,0,1.9|
5,1,9.8|
5,2,3.7|
5,3,6.3|
5,4,1.7|
5,5,3.4|
5,6,2|
5,7,8.6|
6,0,7.2|
6,1,6.3|
6,2,6.8|
6,3,0.035|
6,4,1.3|
6,5,2.2|
6,6,6.1|
6,7,4.9|
7,0,4.6|
7,1,7.6|
7,2,2.9|
7,3,5.4|
7,4,8.6|
7,5,4|
7,6,3.5|
7,7,1.9|
];
constraint_x3_y3=[
0,0,6.7|
0,1,3.2|
0,2,1.3|
0,3,8.9|
0,4,2.3|
0,5,4.3|
0,6,5.1|
0,7,1.1|
1,0,9.4|
1,1,3.4|
1,2,8.1|
1,3,6.8|
1,4,6.2|
1,5,1.6|
1,6,1.9|
1,7,9.5|
2,0,5.2|
2,1,6.5|
2,2,2.2|
2,3,2.2|
2,4,7.8|
2,5,8.7|
2,6,8.3|
2,7,3.6|
3,0,5.1|
3,1,3.4|
3,2,6.7|
3,3,5.3|
3,4,2.1|
3,5,3.5|
3,6,3.1|
3,7,9.1|
4,0,1.8|
4,1,1.5|
4,2,4.9|
4,3,0.21|
4,4,3.4|
4,5,7.6|
4,6,9.7|
4,7,5.4|
5,0,3.6|
5,1,1.2|
5,2,4.2|
5,3,8.5|
5,4,2.5|
5,5,7.2|
5,6,5|
5,7,6.1|
6,0,0.56|
6,1,9.2|
6,2,4.4|
6,3,4.4|
6,4,9.4|
6,5,7.9|
6,6,5.9|
6,7,9.9|
7,0,2.1|
7,1,2.8|
7,2,7.5|
7,3,8.1|
7,4,2.3|
7,5,6.4|
7,6,7.4|
7,7,8.9|
];
constraint_x4_y4=[
0,0,2|
0,1,2.5|
0,2,7.4|
0,3,3.7|
0,4,0.47|
0,5,4.2|
0,6,10|
0,7,1.4|
1,0,8|
1,1,2.5|
1,2,4.1|
1,3,7.2|
1,4,0.05|
1,5,1.7|
1,6,7.5|
1,7,0.34|
2,0,1.7|
2,1,3.4|
2,2,0.15|
2,3,1.3|
2,4,7.4|
2,5,3.9|
2,6,8.4|
2,7,5.7|
3,0,0.61|
3,1,2.4|
3,2,5.2|
3,3,1.8|
3,4,5.6|
3,5,4.6|
3,6,7.9|
3,7,9|
4,0,5|
4,1,6.4|
4,2,6.9|
4,3,6.2|
4,4,0.19|
4,5,4.5|
4,6,0.65|
4,7,6|
5,0,3.1|
5,1,4.7|
5,2,2.7|
5,3,8.8|
5,4,8.4|
5,5,5.7|
5,6,0.93|
5,7,5.3|
6,0,5.9|
6,1,2.7|
6,2,1.8|
6,3,9.4|
6,4,0.92|
6,5,7.4|
6,6,0.96|
6,7,9|
7,0,5.8|
7,1,9.9|
7,2,1.3|
7,3,0.91|
7,4,3.5|
7,5,9.1|
7,6,9.3|
7,7,5.6|
];
constraint_x5_y5=[
0,0,4.1|
0,1,4.4|
0,2,5.7|
0,3,0.057|
0,4,1.2|
0,5,4.6|
0,6,2.6|
0,7,3.9|
1,0,4.6|
1,1,6.3|
1,2,2.3|
1,3,0.61|
1,4,8.8|
1,5,4.4|
1,6,0.35|
1,7,0.14|
2,0,1.7|
2,1,8|
2,2,5.5|
2,3,5.5|
2,4,1.7|
2,5,4.2|
2,6,4.8|
2,7,4.4|
3,0,1.6|
3,1,6.7|
3,2,5.5|
3,3,6.4|
3,4,6.9|
3,5,2.5|
3,6,8|
3,7,0.64|
4,0,5|
4,1,7.8|
4,2,5.4|
4,3,5|
4,4,4.2|
4,5,4.4|
4,6,3.3|
4,7,9.1|
5,0,3.1|
5,1,6.6|
5,2,3.6|
5,3,6.7|
5,4,8.1|
5,5,7.8|
5,6,5.6|
5,7,7|
6,0,0.18|
6,1,4|
6,2,3.1|
6,3,6|
6,4,3.3|
6,5,1.9|
6,6,3.9|
6,7,5.6|
7,0,5.6|
7,1,4.3|
7,2,6.3|
7,3,2.6|
7,4,5.6|
7,5,2|
7,6,6.6|
7,7,8.4|
];
constraint_x6_y6=[
0,0,5.2|
0,1,8.6|
0,2,1.1|
0,3,3.3|
0,4,6.5|
0,5,1.8|
0,6,0.15|
0,7,0.059|
1,0,2.6|
1,1,0.15|
1,2,7.9|
1,3,2.3|
1,4,1|
1,5,4.5|
1,6,7.9|
1,7,1.5|
2,0,8.5|
2,1,9.6|
2,2,0.08|
2,3,1.8|
2,4,4.1|
2,5,8.4|
2,6,3|
2,7,5.4|
3,0,2.7|
3,1,5.6|
3,2,4.4|
3,3,4.8|
3,4,6.2|
3,5,2.1|
3,6,1.9|
3,7,0.95|
4,0,5.9|
4,1,4.6|
4,2,6.9|
4,3,7.2|
4,4,9.7|
4,5,8.4|
4,6,5.9|
4,7,2.1|
5,0,8.9|
5,1,1.7|
5,2,7.6|
5,3,2.1|
5,4,5.2|
5,5,7.3|
5,6,9|
5,7,8.7|
6,0,4.5|
6,1,6.2|
6,2,3.2|
6,3,6|
6,4,8.7|
6,5,6.7|
6,6,1.7|
6,7,2.9|
7,0,2.3|
7,1,7.5|
7,2,7.6|
7,3,0.29|
7,4,1.2|
7,5,6.3|
7,6,1.9|
7,7,1.6|
];
constraint_x7_y7=[
0,0,8.3|
0,1,1|
0,2,8|
0,3,9.7|
0,4,3.1|
0,5,6.3|
0,6,7.6|
0,7,3.5|
1,0,6.1|
1,1,8.6|
1,2,5.5|
1,3,6.8|
1,4,4.5|
1,5,1.9|
1,6,3.4|
1,7,0.37|
2,0,5|
2,1,4|
2,2,6.3|
2,3,9|
2,4,3.7|
2,5,1.5|
2,6,5.1|
2,7,8.8|
3,0,0.2|
3,1,5.8|
3,2,4.6|
3,3,2.5|
3,4,2|
3,5,4.5|
3,6,2|
3,7,7.8|
4,0,3|
4,1,6.2|
4,2,2|
4,3,6.5|
4,4,4.1|
4,5,4.4|
4,6,0.12|
4,7,5.7|
5,0,3.6|
5,1,6.2|
5,2,4.2|
5,3,0.19|
5,4,9.6|
5,5,9.2|
5,6,8.3|
5,7,4.1|
6,0,0.07|
6,1,7.3|
6,2,6.3|
6,3,4.5|
6,4,7.4|
6,5,7.1|
6,6,2.2|
6,7,1.9|
7,0,3.3|
7,1,1.3|
7,2,4.7|
7,3,6.1|
7,4,1.6|
7,5,2.3|
7,6,3.2|
7,7,4.5|
];
constraint_x8_y8=[
0,0,8.7|
0,1,8.5|
0,2,2.5|
0,3,3.5|
0,4,3.4|
0,5,4.4|
0,6,8.9|
0,7,5|
1,0,8.1|
1,1,6.1|
1,2,1.6|
1,3,0.52|
1,4,8.3|
1,5,8.5|
1,6,0.89|
1,7,0.37|
2,0,9.5|
2,1,5.5|
2,2,2.9|
2,3,8.9|
2,4,1.5|
2,5,1.7|
2,6,1.9|
2,7,3.3|
3,0,0.84|
3,1,4.4|
3,2,6.9|
3,3,7.8|
3,4,0.031|
3,5,4.9|
3,6,8.4|
3,7,9.3|
4,0,6.3|
4,1,2.3|
4,2,6.7|
4,3,7.8|
4,4,4.8|
4,5,8.1|
4,6,9.9|
4,7,0.054|
5,0,7.9|
5,1,2|
5,2,0.22|
5,3,0.34|
5,4,1.5|
5,5,9.9|
5,6,3.8|
5,7,8.6|
6,0,5.8|
6,1,7.5|
6,2,0.12|
6,3,1.4|
6,4,3.5|
6,5,0.084|
6,6,3.9|
6,7,4.1|
7,0,8.4|
7,1,5.7|
7,2,3.1|
7,3,4.7|
7,4,4|
7,5,8.9|
7,6,8.9|
7,7,4|
];
initial_distribution_y1=[0.047,0.043,0.16,0.12,0.21,0.14,0.14,0.15];
initial_distribution_y2=[0.23,0.055,0.034,0.26,0.11,0.018,0.2,0.086];
initial_distribution_y3=[0.13,0.21,0.054,0.032,0.15,0.12,0.083,0.22];
initial_distribution_y4=[0.21,0.0062,0.086,0.21,0.21,0.084,0.0077,0.19];
initial_distribution_y5=[0.0089,0.12,0.16,0.037,0.16,0.2,0.16,0.15];
initial_distribution_y6=[0.24,0.31,0.026,0.05,0.12,0.022,0.094,0.13];
initial_distribution_y7=[0.013,0.067,0.13,0.19,0.071,0.24,0.12,0.16];
initial_distribution_y8=[0.082,0.28,0.089,0.27,0.033,0.12,0.075,0.049];
transition_y1=[
0.28,0.0078,0.035,0.1,0.0087,0.094,0.26,0.21|
0.11,0.18,0.096,0.17,0.11,0.072,0.18,0.085|
0.11,0.058,0.16,0.046,0.044,0.079,0.22,0.28|
0.083,0.095,0.22,0.11,0.096,0.26,0.039,0.1|
0.16,0.15,0.008,0.089,0.21,0.04,0.27,0.066|
0.14,0.14,0.14,0.15,0.097,0.1,0.081,0.15|
0.19,0.013,0.094,0.19,0.21,0.12,0.069,0.11|
0.042,0.21,0.12,0.13,0.084,0.21,0.2,0.0074|
];
transition_y2=[
0.0062,0.23,0.015,0.03,0.13,0.25,0.18,0.17|
0.18,0.071,0.17,0.17,0.14,0.11,0.024,0.14|
0.16,0.14,0.16,0.18,0.075,0.049,0.18,0.038|
0.15,0.14,0.053,0.18,0.1,0.074,0.12,0.18|
0.14,0.13,0.19,0.19,0.039,0.15,0.11,0.046|
0.11,0.012,0.078,0.17,0.15,0.19,0.17,0.12|
0.24,0.096,0.038,0.18,0.16,0.11,0.089,0.094|
0.19,0.21,0.069,0.1,0.024,0.11,0.19,0.1|
];
transition_y3=[
0.2,0.2,0.076,0.16,0.06,0.17,0.11,0.015|
0.097,0.22,0.0054,0.13,0.17,0.057,0.16,0.15|
0.087,0.083,0.13,0.02,0.14,0.15,0.15,0.23|
0.15,0.18,0.11,0.033,0.066,0.066,0.18,0.21|
0.15,0.14,0.12,0.083,0.15,0.14,0.15,0.079|
0.15,0.21,0.091,0.18,0.039,0.17,0.053,0.11|
0.08,0.037,0.26,0.016,0.28,0.16,0.1,0.074|
0.03,0.067,0.17,0.19,0.18,0.18,0.16,0.023|
];
transition_y4=[
0.18,0.24,0.058,0.17,0.11,0.014,0.2,0.029|
0.16,0.029,0.0073,0.15,0.22,0.11,0.24,0.086|
0.18,0.0037,0.13,0.0061,0.17,0.17,0.14,0.19|
0.11,0.11,0.12,0.12,0.047,0.21,0.14,0.13|
0.062,0.063,0.21,0.097,0.099,0.21,0.24,0.022|
0.15,0.0061,0.14,0.16,0.22,0.012,0.055,0.26|
0.023,0.069,0.28,0.14,0.16,0.15,0.16,0.024|
0.12,0.054,0.16,0.15,0.012,0.17,0.14,0.19|
];
transition_y5=[
0.018,0.084,0.2,0.26,0.032,0.25,0.096,0.068|
0.03,0.2,0.27,0.036,0.29,0.038,0.062,0.073|
0.054,0.22,0.053,0.2,0.13,0.11,0.21,0.031|
0.02,0.26,0.17,0.043,0.0044,0.22,0.086,0.19|
0.075,0.23,0.059,0.15,0.1,0.06,0.12,0.21|
0.069,0.1,0.22,0.032,0.23,0.1,0.15,0.096|
0.19,0.068,0.11,0.19,0.21,0.062,0.091,0.082|
0.11,0.083,0.21,0.06,0.16,0.1,0.13,0.14|
];
transition_y6=[
0.024,0.13,0.19,0.17,0.096,0.073,0.14,0.19|
0.13,0.18,0.013,0.17,0.18,0.028,0.13,0.17|
0.24,0.027,0.095,0.15,0.045,0.11,0.099,0.24|
0.12,0.14,0.18,0.12,0.18,0.0072,0.13,0.12|
0.016,0.14,0.17,0.18,0.12,0.18,0.15,0.05|
0.21,0.059,0.049,0.045,0.15,0.014,0.17,0.3|
0.091,0.12,0.18,0.18,0.19,0.033,0.09,0.12|
0.022,0.24,0.2,0.0057,0.014,0.18,0.1,0.25|
];
transition_y7=[
0.011,0.2,0.17,0.1,0.17,0.24,0.021,0.087|
0.082,0.17,0.076,0.13,0.29,0.0069,0.072,0.17|
0.23,0.067,0.04,0.13,0.18,0.15,0.19,0.0056|
0.1,0.092,0.18,0.21,0.14,0.14,0.063,0.064|
0.19,0.18,0.14,0.1,0.0091,0.09,0.14,0.14|
0.11,0.052,0.1,0.11,0.059,0.094,0.22,0.25|
0.14,0.069,0.15,0.15,0.15,0.15,0.14,0.042|
0.14,0.22,0.12,0.052,0.1,0.2,0.13,0.047|
];
transition_y8=[
0.15,0.1,0.24,0.25,0.059,0.037,0.095,0.062|
0.083,0.15,0.2,0.034,0.1,0.16,0.1,0.17|
0.42,0.041,0.073,0.14,0.014,0.098,0.078,0.13|
0.23,0.028,0.17,0.067,0.12,0.15,0.063,0.17|
0.13,0.12,0.18,0.081,0.16,0.12,0.18,0.025|
0.016,0.18,0.093,0.11,0.14,0.14,0.16,0.16|
0.24,0.037,0.16,0.2,0.27,0.05,0.012,0.016|
0.096,0.18,0.13,0.14,0.14,0.078,0.13,0.1|
];
